p cnf 47 13
-11 17 2 29 -3 -27 34 -47 -19 6 9 0
-10 -40 -30 -11 46 -47 -2 19 28 -8 4 0
-41 14 1 16 11 -2 -24 -20 36 -10 32 0
-5 20 -25 -15 22 -4 -16 -32 -19 -11 -14 0
4 -19 -23 -18 34 1 6 -27 32 -11 7 0
-3 12 5 11 13 -45 1 -28 -27 -10 6 0
5 -7 3 -6 37 17 2 34 -4 -9 27 0
18 -6 -2 -24 -1 -8 -15 10 28 14 35 0
3 22 21 -19 31 1 -5 -11 35 -16 -6 0
-41 24 -2 -21 -9 3 5 -32 27 8 26 0
3 -2 1 23 39 -16 8 10 -4 37 27 0
-45 3 -22 -2 -46 -1 14 18 -4 9 -32 0
-10 -17 8 -1 15 -40 -38 3 -22 41 5 0
